17	4
12	13	11	13	
0	0	0	0	0	3	2	3	4	
9	6	1	8	6	3	5	9	11	
1	0	9	5	0	3	8	15	17	
3	7	0	0	1	3	13	17	17	
7	2	0	7	8	3	6	10	17	
100	2	9	8	9	3	7	13	17	
225	6	5	9	0	3	12	14	17	
75	9	0	3	2	3	10	17	17	
150	3	0	0	0	3	13	15	17	
25	3	5	2	8	3	17	17	17	
100	0	6	4	10	3	17	17	17	
150	0	10	8	9	3	16	17	17	
5	6	5	3	2	3	16	17	17	
7	3	0	8	8	3	16	17	17	
4	6	9	0	8	2	17	17	
1	0	6	8	10	1	17	
0	0	0	0	0	0	
